
Gurobi 10.0.1 (linux64) logging started Wed May 31 21:53:12 2023

Set parameter LogFile to value "logFiles/N-1L-D/N-1L-14U-40F-23V-365D-basic.log"
Gurobi Optimizer version 10.0.1 build v10.0.1rc0 (linux64)

CPU model: Intel(R) Xeon(R) Gold 5115 CPU @ 2.40GHz, instruction set [SSE2|AVX|AVX2|AVX512]
Thread count: 20 physical cores, 40 logical processors, using up to 20 threads

Optimize a model with 290880 rows, 3536272 columns and 32569503 nonzeros
Model fingerprint: 0xe89a00fd
Variable types: 5109 continuous, 3531163 integer (3531163 binary)
Coefficient statistics:
  Matrix range     [1e+00, 2e+05]
  Objective range  [4e+01, 3e+07]
  Bounds range     [1e+00, 1e+00]
  RHS range        [1e+00, 6e+06]
Presolve removed 158041 rows and 31741 columns (presolve time = 5s) ...
Presolve removed 158534 rows and 40092 columns (presolve time = 10s) ...
Presolve removed 158535 rows and 40092 columns (presolve time = 15s) ...
Presolve removed 158543 rows and 40100 columns (presolve time = 21s) ...
Presolve removed 165363 rows and 40100 columns (presolve time = 25s) ...
Presolve removed 165363 rows and 40100 columns (presolve time = 30s) ...
Presolve removed 165363 rows and 40100 columns (presolve time = 35s) ...
Presolve removed 165363 rows and 40100 columns (presolve time = 40s) ...
Presolve removed 165365 rows and 40100 columns (presolve time = 45s) ...
Presolve removed 165365 rows and 40100 columns (presolve time = 51s) ...
Presolve removed 165365 rows and 40100 columns (presolve time = 56s) ...
Presolve removed 165365 rows and 40100 columns
Presolve time: 56.42s

Explored 0 nodes (0 simplex iterations) in 62.43 seconds (77.35 work units)
Thread count was 1 (of 40 available processors)

Solution count 0

Time limit reached
Best objective -, best bound -, gap -
IIS computation: initial model status unknown, solving to determine model status
Presolve removed 158041 rows and 40092 columns (presolve time = 5s) ...
Presolve removed 158534 rows and 40092 columns (presolve time = 10s) ...
Presolve removed 158535 rows and 40092 columns (presolve time = 15s) ...
Presolve removed 158543 rows and 40100 columns (presolve time = 21s) ...
Presolve removed 165363 rows and 40100 columns (presolve time = 25s) ...
Presolve removed 165363 rows and 40100 columns (presolve time = 30s) ...
Presolve removed 165363 rows and 40100 columns (presolve time = 35s) ...
Presolve removed 165363 rows and 40100 columns (presolve time = 40s) ...
Presolve removed 165365 rows and 40100 columns (presolve time = 45s) ...
Presolve removed 165365 rows and 40100 columns (presolve time = 51s) ...
Presolve removed 165365 rows and 40100 columns
Presolve time: 53.56s

Explored 0 nodes (0 simplex iterations) in 61.31 seconds (75.96 work units)
Thread count was 1 (of 40 available processors)

Solution count 0

Time limit reached
Best objective -, best bound -, gap -
IIS runtime: 61.31 seconds (75.96 work units)
